Optimizer called with the following parameters:
{'focal_plane_mask': {'field_stop_radius': None,
                      'grayscale': True,
                      'num_pix': 150,
                      'radius': 3.5},
 'image': {'bandwidth': 0.15,
           'contrast': 10,
           'iwa': 3.4,
           'num_wavelengths': 5,
           'owa': 14.0,
           'resolution': 2},
 'instrument': {'inst_name': 'USORT'},
 'lyot_stop': {'alignment_tolerance': 0,
               'filename': 'USORT/LS_USORT_hex_ID0000_OD0990_ovsamp16_N0128.fits',
               'num_lyot_stops': 1},
 'method': {'edge_width_for_prior': 2,
            'ending_scale': 1,
            'force_no_hermitian_symmetry': False,
            'force_no_x_mirror_symmetry': False,
            'force_no_y_mirror_symmetry': False,
            'initial_throughput_estimate': 1,
            'maximize_planet_throughput': True,
            'num_throughput_iterations': 2,
            'starting_scale': 1},
 'pupil': {'N': 128,
           'filename': 'USORT/TelAp_USORT_offaxis_ovsamp16_N0128.fits'},
 'solver': {'crossover': 0,
            'method': 2,
            'num_threads': 0}}

File organization:
{'analysis_dir': '/user/bnickson/GitHub/LUVex_TelAps/aplc_optimization/surveys/usort_offaxis_survey_N0128_telserv3/FPM35_IWA34/analysis',
 'drivers_dir': '/user/bnickson/GitHub/LUVex_TelAps/aplc_optimization/surveys/usort_offaxis_survey_N0128_telserv3/FPM35_IWA34/drivers',
 'input_files_dir': '/user/bnickson/GitHub/LUVex_TelAps/aplc_optimization/masks',
 'log_dir': '/user/bnickson/GitHub/LUVex_TelAps/aplc_optimization/surveys/usort_offaxis_survey_N0128_telserv3/FPM35_IWA34/logs',
 'solution_dir': '/user/bnickson/GitHub/LUVex_TelAps/aplc_optimization/surveys/usort_offaxis_survey_N0128_telserv3/FPM35_IWA34/solutions',
 'survey_dir': '/user/bnickson/GitHub/LUVex_TelAps/aplc_optimization/surveys/usort_offaxis_survey_N0128_telserv3/FPM35_IWA34'}

Telescope pupil:
   Mirror symmetry in x: yes
   Mirror symmetry in y: yes

Lyot stop #0:
   Mirror symmetry in x: yes
Lyot stop #0:
   Mirror symmetry in y: yes

Complete APLC:
   Mirror symmetry in x: yes
   Mirror symmetry in y: yes

Starting optimization at scale 1 with 2726 variables and 2905 constraints.
Creating model...
Set parameter Username
Academic license - for non-commercial use only - expires 2024-10-25
Set parameter Crossover to value 0
Set parameter Method to value 2
Calculating and adding constraints...
Wavelength 1/5; Variable 1000/2726
Wavelength 1/5; Variable 2000/2726
Warning for adding constraints: zero or small (< 1e-13) coefficients, ignored
Wavelength 2/5; Variable 1000/2726
Wavelength 2/5; Variable 2000/2726
Wavelength 3/5; Variable 1000/2726
Wavelength 3/5; Variable 2000/2726
Wavelength 4/5; Variable 1000/2726
Wavelength 4/5; Variable 2000/2726
Wavelength 5/5; Variable 1000/2726
Wavelength 5/5; Variable 2000/2726
Start optimization...
Gurobi Optimizer version 10.0.3 build v10.0.3rc0 (linux64)

CPU model: Intel(R) Xeon(R) Gold 6146 CPU @ 3.20GHz, instruction set [SSE2|AVX|AVX2|AVX512]
Thread count: 24 physical cores, 48 logical processors, using up to 24 threads

Optimize a model with 5810 rows, 2726 columns and 15838058 nonzeros
Model fingerprint: 0x0dbc4242
Coefficient statistics:
  Matrix range     [4e-13, 6e-04]
  Objective range  [4e-03, 1e+00]
  Bounds range     [1e+00, 1e+00]
  RHS range        [1e-05, 1e-05]
Presolve removed 0 rows and 0 columns (presolve time = 6s) ...
Presolve time: 7.18s
Presolved: 2726 rows, 8536 columns, 15840784 nonzeros
Error: invalid user locale; possible fix is to set the system environment
       variable 'LC_ALL' to a valid locale (e.g., to 'C')
Ordering time: 0.07s

Barrier statistics:
 AA' NZ     : 3.714e+06
 Factor NZ  : 3.717e+06 (roughly 34 MB of memory)
 Factor Ops : 6.756e+09 (less than 1 second per iteration)
 Threads    : 24

                  Objective                Residual
Iter       Primal          Dual         Primal    Dual     Compl     Time
   0   5.65089082e+03  0.00000000e+00  0.00e+00 0.00e+00  9.79e-01    11s
   1   3.12246217e+03  6.88871719e+02  0.00e+00 1.54e-01  3.60e-01    11s
   2   2.11555594e+03  1.19240032e+03  0.00e+00 7.84e-02  1.44e-01    12s
   3   2.00496638e+03  1.30505358e+03  0.00e+00 5.69e-02  1.06e-01    13s
   4   1.89866334e+03  1.32234576e+03  0.00e+00 5.35e-02  9.19e-02    14s
   5   1.81829412e+03  1.34653415e+03  0.00e+00 4.47e-02  7.84e-02    15s
   6   1.70022285e+03  1.36409115e+03  0.00e+00 3.89e-02  6.48e-02    16s
   7   1.57366516e+03  1.37013978e+03  0.00e+00 3.25e-02  5.06e-02    16s
   8   1.50813543e+03  1.35658365e+03  0.00e+00 2.75e-02  4.30e-02    17s
   9   1.47016966e+03  1.34820258e+03  0.00e+00 2.56e-02  3.94e-02    18s
  10   1.40414993e+03  1.33031960e+03  0.00e+00 2.22e-02  3.30e-02    19s
  11   1.34622875e+03  1.30650722e+03  0.00e+00 1.88e-02  2.71e-02    19s
  12   1.28305643e+03  1.27361604e+03  0.00e+00 1.51e-02  2.06e-02    20s
  13   1.24727820e+03  1.25727623e+03  0.00e+00 1.33e-02  1.70e-02    21s
  14   1.23599366e+03  1.25370109e+03  0.00e+00 1.29e-02  1.59e-02    22s
  15   1.20922765e+03  1.23456096e+03  0.00e+00 1.10e-02  1.30e-02    23s
  16   1.16870533e+03  1.20977334e+03  0.00e+00 8.82e-03  8.85e-03    23s
  17   1.14039759e+03  1.18192571e+03  0.00e+00 6.58e-03  6.06e-03    24s
  18   1.12439014e+03  1.15825735e+03  0.00e+00 4.88e-03  4.40e-03    25s
  19   1.11758378e+03  1.14701388e+03  0.00e+00 4.06e-03  3.57e-03    26s
  20   1.10436436e+03  1.12787627e+03  0.00e+00 2.70e-03  2.00e-03    27s
  21   1.09858600e+03  1.11906905e+03  0.00e+00 2.05e-03  1.31e-03    28s
  22   1.09719920e+03  1.11292503e+03  0.00e+00 1.61e-03  1.06e-03    28s
  23   1.09643551e+03  1.10992049e+03  0.00e+00 1.40e-03  9.29e-04    29s
  24   1.09458662e+03  1.10389204e+03  0.00e+00 9.68e-04  6.52e-04    30s
  25   1.09321488e+03  1.10182372e+03  0.00e+00 8.19e-04  4.84e-04    31s
  26   1.09179855e+03  1.09725005e+03  0.00e+00 4.89e-04  2.59e-04    31s
  27   1.09119618e+03  1.09354133e+03  1.13e-05 2.22e-04  1.29e-04    32s
  28   1.09072571e+03  1.09240398e+03  8.91e-05 1.38e-04  6.01e-05    33s
  29   1.09070875e+03  1.09224765e+03  8.89e-05 1.26e-04  5.51e-05    34s
  30   1.09069236e+03  1.09210141e+03  1.27e-04 1.16e-04  5.03e-05    35s
  31   1.09069195e+03  1.09210134e+03  1.18e-04 1.16e-04  5.03e-05    36s
  32   1.09068809e+03  1.09206939e+03  1.55e-04 1.13e-04  4.92e-05    38s
  33   1.09068835e+03  1.09206929e+03  1.58e-04 1.13e-04  4.03e-05    39s
  34   1.09068780e+03  1.09206924e+03  1.49e-04 1.13e-04  4.03e-05    40s
  35   1.09068720e+03  1.09206918e+03  4.27e-04 1.13e-04  4.03e-05    41s
  36   1.09068352e+03  1.09201755e+03  4.17e-04 1.10e-04  3.89e-05    43s
  37   1.09068361e+03  1.09201701e+03  4.17e-04 1.09e-04  3.89e-05    44s
  38   1.09068399e+03  1.09201685e+03  4.22e-04 1.09e-04  3.89e-05    45s
  39   1.09068185e+03  1.09200096e+03  4.17e-04 1.08e-04  3.84e-05    46s
  40   1.09068058e+03  1.09198645e+03  4.19e-04 1.07e-04  3.81e-05    47s
  41   1.09068066e+03  1.09198616e+03  4.27e-04 1.07e-04  3.80e-05    49s
  42   1.09067780e+03  1.09195191e+03  4.17e-04 1.05e-04  3.73e-05    50s
  43   1.09067367e+03  1.09194067e+03  4.03e-04 1.04e-04  3.67e-05    51s
  44   1.09067145e+03  1.09193126e+03  4.01e-04 1.03e-04  3.64e-05    52s
  45   1.09067115e+03  1.09193129e+03  4.03e-04 1.03e-04  3.64e-05    54s
  46   1.09066687e+03  1.09189529e+03  3.74e-04 1.01e-04  3.54e-05    55s
  47   1.09066613e+03  1.09188963e+03  3.68e-04 1.00e-04  3.53e-05    56s
  48   1.09066614e+03  1.09188969e+03  3.69e-04 1.00e-04  3.53e-05    57s
  49   1.09066474e+03  1.09187788e+03  3.54e-04 9.94e-05  3.50e-05    58s
  50   1.09066467e+03  1.09187637e+03  1.86e-04 9.93e-05  3.49e-05    58s
  51   1.09066479e+03  1.09187636e+03  2.28e-04 9.93e-05  3.49e-05    59s
  52   1.09066512e+03  1.09187633e+03  5.08e-04 9.93e-05  3.49e-05    60s
  53   1.09066498e+03  1.09187631e+03  5.18e-04 9.92e-05  3.49e-05    62s
  54   1.09066229e+03  1.09186420e+03  5.27e-04 9.84e-05  3.45e-05    63s
  55   1.09065567e+03  1.09182656e+03  5.09e-04 9.56e-05  3.32e-05    64s
  56   1.09065560e+03  1.09182577e+03  5.22e-04 9.56e-05  3.32e-05    65s
  57   1.09065460e+03  1.09181890e+03  5.05e-04 9.51e-05  3.30e-05    66s
  58   1.09065405e+03  1.09178603e+03  5.07e-04 9.27e-05  3.24e-05    67s
  59   1.09065210e+03  1.09171621e+03  5.02e-04 8.76e-05  3.11e-05    68s
  60   1.09065190e+03  1.09171586e+03  4.97e-04 8.76e-05  3.11e-05    69s
  61   1.09064805e+03  1.09168734e+03  5.10e-04 8.55e-05  3.03e-05    71s
  62   1.09064790e+03  1.09168734e+03  5.16e-04 8.55e-05  3.03e-05    72s
  63   1.09064781e+03  1.09168575e+03  5.24e-04 8.54e-05  3.03e-05    73s
  64   1.09064488e+03  1.09162094e+03  5.28e-04 8.07e-05  2.90e-05    74s
  65   1.09064639e+03  1.09161506e+03  5.26e-04 8.03e-05  2.89e-05    75s
  66   1.09064812e+03  1.09161413e+03  1.25e-03 8.02e-05  2.89e-05    76s
  67   1.09064635e+03  1.09159466e+03  1.23e-03 7.88e-05  2.84e-05    78s
  68   1.09064481e+03  1.09158592e+03  1.22e-03 7.81e-05  2.82e-05    79s
  69   1.09064113e+03  1.09156680e+03  1.20e-03 7.68e-05  2.76e-05    80s
  70   1.09063855e+03  1.09153323e+03  1.15e-03 7.43e-05  2.68e-05    81s
  71   1.09063855e+03  1.09152741e+03  1.38e-03 7.39e-05  2.67e-05    82s
  72   1.09063929e+03  1.09152732e+03  1.74e-03 7.39e-05  2.67e-05    84s
  73   1.09063961e+03  1.09151772e+03  1.49e-03 7.32e-05  2.65e-05    85s
  74   1.09063952e+03  1.09151760e+03  1.49e-03 7.32e-05  2.65e-05    86s
  75   1.09063845e+03  1.09151758e+03  1.63e-03 7.32e-05  2.65e-05    87s
  76   1.09063676e+03  1.09151413e+03  1.66e-03 7.29e-05  2.63e-05    88s
  77   1.09063467e+03  1.09148529e+03  1.69e-03 7.09e-05  2.57e-05    89s
  78   1.09063426e+03  1.09148273e+03  1.70e-03 7.07e-05  2.56e-05    90s
  79   1.09063405e+03  1.09147917e+03  1.60e-03 7.04e-05  2.56e-05    92s
  80   1.09063462e+03  1.09147915e+03  1.63e-03 7.04e-05  2.55e-05    93s

Barrier performed 80 iterations in 92.82 seconds (51.70 work units)
Sub-optimal termination - objective 1.09063855e+03

Optimization finished!
Restarting optimization for throughput iteration 1...
Gurobi Optimizer version 10.0.3 build v10.0.3rc0 (linux64)

CPU model: Intel(R) Xeon(R) Gold 6146 CPU @ 3.20GHz, instruction set [SSE2|AVX|AVX2|AVX512]
Thread count: 24 physical cores, 48 logical processors, using up to 24 threads

Optimize a model with 5810 rows, 2726 columns and 15838058 nonzeros
Model fingerprint: 0xb89a6c37
Coefficient statistics:
  Matrix range     [4e-13, 6e-04]
  Objective range  [4e-03, 1e+00]
  Bounds range     [1e+00, 1e+00]
  RHS range        [5e-06, 5e-06]
Presolve removed 0 rows and 0 columns (presolve time = 6s) ...
Presolve time: 7.24s
Presolved: 2726 rows, 8536 columns, 15840784 nonzeros
Ordering time: 0.07s

Barrier statistics:
 AA' NZ     : 3.714e+06
 Factor NZ  : 3.717e+06 (roughly 34 MB of memory)
 Factor Ops : 6.756e+09 (less than 1 second per iteration)
 Threads    : 24

                  Objective                Residual
Iter       Primal          Dual         Primal    Dual     Compl     Time
   0   5.57091157e+03  0.00000000e+00  0.00e+00 0.00e+00  9.69e-01    11s
   1   3.05581557e+03  6.79870824e+02  0.00e+00 1.56e-01  3.60e-01    12s
   2   2.09944668e+03  1.15590411e+03  0.00e+00 8.41e-02  1.56e-01    12s
   3   1.89593482e+03  1.26187167e+03  0.00e+00 6.56e-02  1.11e-01    13s
   4   1.78710624e+03  1.28312414e+03  0.00e+00 6.06e-02  9.69e-02    14s
   5   1.69427569e+03  1.31088022e+03  0.00e+00 5.42e-02  8.43e-02    15s
   6   1.61507108e+03  1.32327560e+03  0.00e+00 4.90e-02  7.52e-02    15s
   7   1.56037720e+03  1.32495303e+03  0.00e+00 4.74e-02  7.13e-02    16s
   8   1.41284277e+03  1.32422696e+03  0.00e+00 4.07e-02  5.81e-02    17s
   9   1.37686086e+03  1.31658053e+03  0.00e+00 3.83e-02  5.42e-02    18s
  10   1.33455058e+03  1.30834830e+03  0.00e+00 3.63e-02  5.04e-02    18s
  11   1.28571098e+03  1.29445453e+03  0.00e+00 3.33e-02  4.51e-02    19s
  12   1.23777127e+03  1.28029996e+03  0.00e+00 3.05e-02  4.00e-02    20s
  13   1.21036560e+03  1.27252948e+03  0.00e+00 2.94e-02  3.76e-02    21s
  14   1.20322829e+03  1.25617285e+03  0.00e+00 2.71e-02  3.53e-02    21s
  15   1.16662783e+03  1.24029896e+03  0.00e+00 2.51e-02  3.14e-02    22s
  16   1.14345576e+03  1.22191248e+03  0.00e+00 2.28e-02  2.82e-02    23s
  17   1.11343158e+03  1.21084567e+03  0.00e+00 2.16e-02  2.55e-02    23s
  18   1.10343725e+03  1.19783426e+03  0.00e+00 2.02e-02  2.37e-02    24s
  19   1.07358068e+03  1.18093781e+03  0.00e+00 1.85e-02  2.03e-02    25s
  20   1.02203218e+03  1.15321944e+03  0.00e+00 1.63e-02  1.55e-02    25s
  21   9.96136135e+02  1.13271850e+03  0.00e+00 1.46e-02  1.25e-02    26s
  22   9.85642992e+02  1.10248757e+03  0.00e+00 1.22e-02  1.04e-02    27s
  23   9.78704996e+02  1.09681245e+03  0.00e+00 1.18e-02  9.58e-03    28s
  24   9.75847925e+02  1.09248641e+03  0.00e+00 1.15e-02  9.12e-03    28s
  25   9.68694464e+02  1.08150759e+03  0.00e+00 1.06e-02  8.18e-03    29s
  26   9.59850919e+02  1.06143800e+03  0.00e+00 9.15e-03  6.45e-03    30s
  27   9.56938788e+02  1.05328622e+03  0.00e+00 8.56e-03  5.89e-03    30s
  28   9.54133334e+02  1.04960474e+03  0.00e+00 8.30e-03  5.54e-03    31s
  29   9.51968791e+02  1.03951633e+03  0.00e+00 7.59e-03  4.99e-03    32s
  30   9.49885533e+02  1.03209764e+03  0.00e+00 7.07e-03  4.60e-03    33s
  31   9.49139983e+02  1.02723120e+03  0.00e+00 6.73e-03  4.38e-03    33s
  32   9.45625536e+02  1.01328211e+03  0.00e+00 5.76e-03  3.57e-03    34s
  33   9.42040676e+02  1.00619691e+03  0.00e+00 5.26e-03  2.98e-03    35s
  34   9.41050292e+02  1.00496288e+03  0.00e+00 5.17e-03  2.86e-03    36s
  35   9.40255389e+02  1.00344852e+03  0.00e+00 5.07e-03  2.75e-03    37s
  36   9.39181935e+02  9.99513698e+02  0.00e+00 4.80e-03  2.58e-03    38s
  37   9.38321629e+02  9.94417652e+02  0.00e+00 4.45e-03  2.36e-03    38s
  38   9.37752260e+02  9.91541330e+02  0.00e+00 4.25e-03  2.25e-03    39s
  39   9.36326044e+02  9.82193102e+02  0.00e+00 3.60e-03  1.86e-03    40s
  40   9.35415036e+02  9.79740795e+02  0.00e+00 3.44e-03  1.75e-03    41s
  41   9.33971343e+02  9.72410730e+02  0.00e+00 2.94e-03  1.48e-03    41s
  42   9.33196924e+02  9.71476426e+02  0.00e+00 2.88e-03  1.40e-03    42s
  43   9.32242032e+02  9.69384026e+02  0.00e+00 2.74e-03  1.22e-03    42s
  44   9.31155871e+02  9.66294826e+02  0.00e+00 2.54e-03  1.11e-03    43s
  45   9.31278410e+02  9.63574946e+02  0.00e+00 2.36e-03  1.05e-03    44s
  46   9.30732729e+02  9.60126499e+02  0.00e+00 2.14e-03  9.45e-04    45s
  47   9.29950168e+02  9.58015213e+02  0.00e+00 2.00e-03  8.51e-04    46s
  48   9.29199522e+02  9.49733349e+02  0.00e+00 1.46e-03  6.26e-04    46s
  49   9.28849406e+02  9.44549369e+02  0.00e+00 1.13e-03  4.98e-04    47s
  50   9.28023435e+02  9.40789625e+02  0.00e+00 8.86e-04  3.51e-04    48s
  51   9.27569336e+02  9.37318980e+02  0.00e+00 6.61e-04  2.40e-04    49s
  52   9.27373379e+02  9.34798043e+02  0.00e+00 4.99e-04  1.75e-04    50s
  53   9.27275623e+02  9.31996922e+02  0.00e+00 3.20e-04  1.16e-04    51s
  54   9.27197239e+02  9.30691726e+02  1.58e-06 2.37e-04  8.58e-05    51s
  55   9.27104470e+02  9.28623450e+02  8.78e-06 1.06e-04  4.13e-05    52s
  56   9.27040235e+02  9.27857446e+02  1.74e-05 5.67e-05  2.21e-05    53s
  57   9.27021795e+02  9.27554975e+02  4.08e-05 3.74e-05  1.51e-05    54s
  58   9.27018438e+02  9.27518975e+02  5.62e-05 3.51e-05  1.42e-05    55s
  59   9.27016976e+02  9.27497429e+02  3.86e-05 3.38e-05  1.37e-05    57s
  60   9.27008059e+02  9.27329264e+02  4.07e-05 2.30e-05  9.92e-06    58s
  61   9.27006888e+02  9.27310763e+02  6.40e-05 2.19e-05  9.49e-06    59s
  62   9.27003607e+02  9.27297969e+02  6.45e-05 2.10e-05  8.97e-06    60s
  63   9.27002765e+02  9.27274330e+02  5.77e-05 1.95e-05  8.47e-06    61s
  64   9.27002391e+02  9.27268327e+02  6.49e-05 1.91e-05  8.33e-06    63s
  65   9.27001019e+02  9.27245859e+02  6.34e-05 1.77e-05  7.82e-06    64s
  66   9.27000827e+02  9.27241537e+02  6.03e-05 1.74e-05  7.73e-06    65s
  67   9.27000576e+02  9.27238494e+02  5.29e-05 1.72e-05  7.65e-06    66s
  68   9.27000565e+02  9.27238269e+02  5.14e-05 1.72e-05  7.65e-06    67s
  69   9.26999157e+02  9.27232548e+02  5.42e-05 1.69e-05  7.41e-06    68s
  70   9.26999119e+02  9.27230792e+02  4.91e-05 1.68e-05  5.80e-06    69s
  71   9.26998312e+02  9.27221667e+02  4.60e-05 1.62e-05  5.66e-06    71s
  72   9.26998106e+02  9.27215749e+02  7.12e-05 1.58e-05  5.57e-06    72s
  73   9.26998107e+02  9.27215701e+02  1.35e-04 1.58e-05  5.57e-06    73s
  74   9.26997604e+02  9.27207204e+02  1.30e-04 1.53e-05  5.43e-06    74s
  75   9.26996547e+02  9.27195607e+02  1.29e-04 1.45e-05  5.18e-06    75s
  76   9.26995940e+02  9.27195609e+02  1.40e-04 1.45e-05  5.17e-06    76s
  77   9.26995654e+02  9.27195611e+02  2.33e-04 1.45e-05  5.17e-06    77s
  78   9.26994034e+02  9.27172102e+02  2.16e-04 1.30e-05  4.66e-06    79s
  79   9.26993404e+02  9.27169055e+02  2.12e-04 1.28e-05  4.57e-06    80s
  80   9.26993193e+02  9.27161125e+02  2.15e-04 1.23e-05  4.46e-06    81s
  81   9.26992336e+02  9.27152413e+02  2.17e-04 1.18e-05  4.26e-06    83s
  82   9.26992316e+02  9.27151466e+02  2.07e-04 1.17e-05  4.24e-06    84s
  83   9.26991625e+02  9.27146688e+02  1.75e-04 1.14e-05  4.13e-06    85s
  84   9.26991307e+02  9.27146666e+02  1.75e-04 1.14e-05  4.13e-06    86s
  85   9.26989919e+02  9.27138456e+02  1.82e-04 1.09e-05  3.93e-06    88s
  86   9.26989528e+02  9.27135933e+02  1.86e-04 1.07e-05  3.88e-06    89s
  87   9.26988985e+02  9.27131220e+02  1.57e-04 1.04e-05  3.77e-06    90s
  88   9.26989053e+02  9.27131219e+02  1.47e-04 1.04e-05  3.77e-06    91s
  89   9.26988032e+02  9.27125707e+02  1.46e-04 1.01e-05  3.65e-06    92s
  90   9.26987899e+02  9.27124276e+02  1.45e-04 9.97e-06  3.63e-06    93s
  91   9.26986944e+02  9.27111929e+02  1.24e-04 9.19e-06  3.42e-06    94s
  92   9.26986444e+02  9.27108402e+02  1.40e-04 8.96e-06  3.34e-06    95s
  93   9.26986478e+02  9.27107214e+02  1.53e-04 8.89e-06  3.32e-06    96s
  94   9.26986326e+02  9.27107213e+02  1.52e-04 8.89e-06  3.32e-06    97s
  95   9.26985535e+02  9.27107213e+02  2.29e-04 8.89e-06  3.32e-06    98s
  96   9.26984995e+02  9.27101027e+02  2.55e-04 8.49e-06  3.20e-06   100s
  97   9.26984861e+02  9.27100461e+02  2.60e-04 8.46e-06  3.18e-06   101s
  98   9.26985006e+02  9.27095844e+02  3.54e-04 8.16e-06  3.13e-06   102s
  99   9.26984255e+02  9.27091975e+02  3.59e-04 7.91e-06  3.03e-06   104s
 100   9.26984148e+02  9.27087159e+02  2.86e-04 7.61e-06  2.90e-06   105s
 101   9.26983555e+02  9.27084678e+02  3.11e-04 7.45e-06  2.84e-06   106s
 102   9.26983085e+02  9.27078963e+02  3.13e-04 7.09e-06  2.72e-06   107s
 103   9.26982948e+02  9.27073795e+02  5.61e-04 6.76e-06  2.66e-06   108s
 104   9.26983059e+02  9.27073244e+02  5.52e-04 6.72e-06  2.65e-06   110s
 105   9.26983046e+02  9.27070799e+02  5.34e-04 6.57e-06  2.61e-06   111s
 106   9.26983029e+02  9.27070071e+02  5.28e-04 6.52e-06  2.59e-06   112s
 107   9.26983224e+02  9.27069459e+02  5.32e-04 6.48e-06  2.57e-06   114s
 108   9.26983183e+02  9.27067930e+02  5.14e-04 6.38e-06  2.52e-06   115s
 109   9.26982888e+02  9.27067903e+02  5.39e-04 6.38e-06  2.52e-06   116s
 110   9.26982740e+02  9.27067812e+02  5.90e-04 6.38e-06  2.51e-06   117s
 111   9.26982739e+02  9.27067733e+02  5.91e-04 6.37e-06  2.51e-06   118s
 112   9.26981388e+02  9.27065861e+02  5.91e-04 6.25e-06  2.43e-06   120s
 113   9.26980384e+02  9.27063018e+02  6.08e-04 6.07e-06  2.36e-06   121s
 114   9.26980316e+02  9.27062797e+02  6.03e-04 6.06e-06  2.36e-06   123s
 115   9.26980277e+02  9.27062796e+02  7.41e-04 6.06e-06  2.36e-06   124s

Barrier performed 115 iterations in 123.77 seconds (66.12 work units)
Sub-optimal termination - objective 9.26998312e+02

/user/bnickson/GitHub/LUVex_TelAps/aplc_optimization/surveys/usort_offaxis_survey_N0128_telserv3/FPM35_IWA34/drivers/07_USORT_N128_FPM350M0150_IWA0340_OWA01400_C10_BW15_Nlam5_LS_ID_ID00_ODOD09_ls_0_ovsamp16_N.py:102: DeprecationWarning: circular_aperture is deprecated. Its new name is make_circular_aperture.
  dark_zone_mask = circular_aperture(img_owa * 2)(focal_grid) - circular_aperture(img_iwa * 2)(focal_grid)
/user/bnickson/GitHub/LUVex_TelAps/aplc_optimization/surveys/usort_offaxis_survey_N0128_telserv3/FPM35_IWA34/drivers/07_USORT_N128_FPM350M0150_IWA0340_OWA01400_C10_BW15_Nlam5_LS_ID_ID00_ODOD09_ls_0_ovsamp16_N.py:110: DeprecationWarning: circular_aperture is deprecated. Its new name is make_circular_aperture.
  focal_plane_mask = 1 - evaluate_supersampled(circular_aperture(2 * fpm_radius), focal_mask_grid, 8)
WARNING: VerifyWarning: Keyword name 'LS_ALIGN_TOl' is greater than 8 characters or contains characters not allowed by the FITS standard; a HIERARCH card will be created. [astropy.io.fits.card]
WARNING: VerifyWarning: Keyword name 'LS_NUM_STOPS' is greater than 8 characters or contains characters not allowed by the FITS standard; a HIERARCH card will be created. [astropy.io.fits.card]
WARNING: VerifyWarning: Keyword name 'PROG_START' is greater than 8 characters or contains characters not allowed by the FITS standard; a HIERARCH card will be created. [astropy.io.fits.card]
WARNING: VerifyWarning: Keyword name 'PROG_EDGE' is greater than 8 characters or contains characters not allowed by the FITS standard; a HIERARCH card will be created. [astropy.io.fits.card]
WARNING: VerifyWarning: Keyword name 'THRPT_ITER' is greater than 8 characters or contains characters not allowed by the FITS standard; a HIERARCH card will be created. [astropy.io.fits.card]
WARNING: VerifyWarning: Keyword name 'THRPT_ESTIM' is greater than 8 characters or contains characters not allowed by the FITS standard; a HIERARCH card will be created. [astropy.io.fits.card]
WARNING: VerifyWarning: Keyword name 'MAX_THRPT' is greater than 8 characters or contains characters not allowed by the FITS standard; a HIERARCH card will be created. [astropy.io.fits.card]
WARNING: VerifyWarning: Keyword name 'SLV_THRDS' is greater than 8 characters or contains characters not allowed by the FITS standard; a HIERARCH card will be created. [astropy.io.fits.card]
WARNING: VerifyWarning: Keyword name 'SLV_XOVER' is greater than 8 characters or contains characters not allowed by the FITS standard; a HIERARCH card will be created. [astropy.io.fits.card]
Optimization finished!
